pair_coeff    1    *    none
pair_coeff    2*   12*  lj/cut/coul/long     0.000000     0.000000 
pair_coeff 1 2 lj/cut/coul/long 0.500000 3.456700
pair_coeff 2 2 lj/cut/thole/long 0.095000 3.456700 0.558110 1.507
pair_coeff 2 3 lj/cut/coul/long 0.129095 3.058410
pair_coeff 2 4 lj/cut/coul/long 0.154150 3.015460
pair_coeff 2 5 lj/cut/coul/long 0.294075 3.105245
pair_coeff 2 6 lj/cut/coul/long 0.156540 2.989230
pair_coeff 2 7 lj/cut/coul/long 0.156540 2.989230
pair_coeff 2 8 lj/cut/coul/long 0.068635 3.638900
pair_coeff 2 9 lj/cut/coul/long 0.059055 2.597300
pair_coeff 2 10 lj/cut/coul/long 0.059055 2.597300
pair_coeff 2 11 lj/cut/coul/long 0.059055 2.597300
pair_coeff 2 12 lj/cut/thole/long 0.000000 0.000000 0.558110 1.507
pair_coeff 3 3 lj/cut/coul/long 0.095005 3.580000
pair_coeff 3 4 lj/cut/coul/long 0.076123 3.342095
pair_coeff 3 5 lj/cut/coul/long 0.127086 3.411012
pair_coeff 3 6 lj/cut/coul/long 0.081550 3.564968
pair_coeff 3 7 lj/cut/coul/long 0.081550 3.564968
pair_coeff 3 8 lj/cut/coul/long 0.079185 3.539774
pair_coeff 3 9 lj/cut/coul/long 0.053387 2.943399
pair_coeff 3 10 lj/cut/coul/long 0.053387 2.943399
pair_coeff 3 11 lj/cut/coul/long 0.053387 2.991655
pair_coeff 4 4 lj/cut/coul/long 0.060994 3.120000
pair_coeff 4 5 lj/cut/coul/long 0.101828 3.184337
pair_coeff 4 6 lj/cut/coul/long 0.065342 3.328062
pair_coeff 4 7 lj/cut/coul/long 0.065342 3.328062
pair_coeff 4 8 lj/cut/coul/long 0.063447 3.304542
pair_coeff 4 9 lj/cut/coul/long 0.042776 2.747799
pair_coeff 4 10 lj/cut/coul/long 0.042776 2.747799
pair_coeff 4 11 lj/cut/coul/long 0.042776 2.792848
pair_coeff 5 5 lj/cut/coul/long 0.170000 3.250000
pair_coeff 5 6 lj/cut/coul/long 0.109087 3.396690
pair_coeff 5 7 lj/cut/coul/long 0.109087 3.396690
pair_coeff 5 8 lj/cut/coul/long 0.105924 3.372684
pair_coeff 5 9 lj/cut/coul/long 0.071414 2.804461
pair_coeff 5 10 lj/cut/coul/long 0.071414 2.804461
pair_coeff 5 11 lj/cut/coul/long 0.071414 2.850439
pair_coeff 6 6 lj/cut/coul/long 0.070000 3.550000
pair_coeff 6 7 lj/cut/coul/long 0.070000 3.550000
pair_coeff 6 8 lj/cut/coul/long 0.067970 3.524911
pair_coeff 6 9 lj/cut/coul/long 0.045826 2.931041
pair_coeff 6 10 lj/cut/coul/long 0.045826 2.931041
pair_coeff 6 11 lj/cut/coul/long 0.045826 2.979094
pair_coeff 7 7 lj/cut/coul/long 0.070000 3.550000
pair_coeff 7 8 lj/cut/coul/long 0.067970 3.524911
pair_coeff 7 9 lj/cut/coul/long 0.045826 2.931041
pair_coeff 7 10 lj/cut/coul/long 0.045826 2.931041
pair_coeff 7 11 lj/cut/coul/long 0.045826 2.979094
pair_coeff 8 8 lj/cut/coul/long 0.065999 3.500000
pair_coeff 8 9 lj/cut/coul/long 0.044497 2.910326
pair_coeff 8 10 lj/cut/coul/long 0.044497 2.910326
pair_coeff 8 11 lj/cut/coul/long 0.044497 2.958040
pair_coeff 9 9 lj/cut/coul/long 0.030000 2.420000
pair_coeff 9 10 lj/cut/coul/long 0.030000 2.420000
pair_coeff 9 11 lj/cut/coul/long 0.030000 2.459675
pair_coeff 10 10 lj/cut/coul/long 0.030000 2.420000
pair_coeff 10 11 lj/cut/coul/long 0.030000 2.459675
pair_coeff 11 11 lj/cut/coul/long 0.030000 2.500000
pair_coeff 12 12 lj/cut/thole/long 0.000000 0.000000 0.558110 1.507
