pair_coeff    1    1 lj/cut/coul/long     0.095005     3.526300  # B B *
pair_coeff    1    2 lj/cut/coul/long     0.076123     3.291964  # B FB *
pair_coeff    1    3 lj/cut/coul/long     0.060902     3.359847  # B NA ~ *
pair_coeff    1    4 lj/cut/coul/long     0.039081     3.511493  # B CR ~ *
pair_coeff    1    5 lj/cut/coul/long     0.039081     3.511493  # B CW ~ *
pair_coeff    1    6 lj/cut/coul/long     0.037947     3.486677  # B C1 ~ *
pair_coeff    1    7 lj/cut/coul/long     0.025584     2.899248  # B HCR ~ *
pair_coeff    1    8 lj/cut/coul/long     0.025584     2.899248  # B HCW ~ *
pair_coeff    1    9 lj/cut/coul/long     0.025584     2.946780  # B H1 ~ *
pair_coeff    2    2 lj/cut/coul/long     0.060994     3.073200  # FB FB *
pair_coeff    2    3 lj/cut/coul/long     0.048798     3.136572  # FB NA ~ *
pair_coeff    2    4 lj/cut/coul/long     0.031313     3.278141  # FB CR ~ *
pair_coeff    2    5 lj/cut/coul/long     0.031313     3.278141  # FB CW ~ *
pair_coeff    2    6 lj/cut/coul/long     0.030405     3.254974  # FB C1 ~ *
pair_coeff    2    7 lj/cut/coul/long     0.020499     2.706582  # FB HCR ~ *
pair_coeff    2    8 lj/cut/coul/long     0.020499     2.706582  # FB HCW ~ *
pair_coeff    2    9 lj/cut/coul/long     0.020499     2.750955  # FB H1 ~ *
pair_coeff    3    3 lj/cut/coul/long     0.170000     3.201250  # NA NA *
pair_coeff    3    4 lj/cut/coul/long     0.109087     3.345740  # NA CR *
pair_coeff    3    5 lj/cut/coul/long     0.109087     3.345740  # NA CW *
pair_coeff    3    6 lj/cut/coul/long     0.105924     3.322094  # NA C1 *
pair_coeff    3    7 lj/cut/coul/long     0.071414     2.762394  # NA HCR *
pair_coeff    3    8 lj/cut/coul/long     0.071414     2.762394  # NA HCW *
pair_coeff    3    9 lj/cut/coul/long     0.071414     2.807682  # NA H1 *
pair_coeff    4    4 lj/cut/coul/long     0.070000     3.496750  # CR CR *
pair_coeff    4    5 lj/cut/coul/long     0.070000     3.496750  # CR CW *
pair_coeff    4    6 lj/cut/coul/long     0.067970     3.472037  # CR C1 *
pair_coeff    4    7 lj/cut/coul/long     0.045826     2.887075  # CR HCR *
pair_coeff    4    8 lj/cut/coul/long     0.045826     2.887075  # CR HCW *
pair_coeff    4    9 lj/cut/coul/long     0.045826     2.934408  # CR H1 *
pair_coeff    5    5 lj/cut/coul/long     0.070000     3.496750  # CW CW *
pair_coeff    5    6 lj/cut/coul/long     0.067970     3.472037  # CW C1 *
pair_coeff    5    7 lj/cut/coul/long     0.045826     2.887075  # CW HCR *
pair_coeff    5    8 lj/cut/coul/long     0.045826     2.887075  # CW HCW *
pair_coeff    5    9 lj/cut/coul/long     0.045826     2.934408  # CW H1 *
pair_coeff    6    6 lj/cut/coul/long     0.065999     3.447500  # C1 C1 *
pair_coeff    6    7 lj/cut/coul/long     0.044497     2.866671  # C1 HCR *
pair_coeff    6    8 lj/cut/coul/long     0.044497     2.866671  # C1 HCW *
pair_coeff    6    9 lj/cut/coul/long     0.044497     2.913669  # C1 H1 *
pair_coeff    7    7 lj/cut/coul/long     0.030000     2.383700  # HCR HCR *
pair_coeff    7    8 lj/cut/coul/long     0.030000     2.383700  # HCR HCW *
pair_coeff    7    9 lj/cut/coul/long     0.030000     2.422780  # HCR H1 *
pair_coeff    8    8 lj/cut/coul/long     0.030000     2.383700  # HCW HCW *
pair_coeff    8    9 lj/cut/coul/long     0.030000     2.422780  # HCW H1 *
pair_coeff    9    9 lj/cut/coul/long     0.030000     2.462500  # H1 H1 *
