# interactions involving Drude particles
pair_coeff    *  10* coul/long/cs
# Thole dipole-dipole damping if more than 1 Drude per molecule
pair_coeff    1    1 thole   0.578
pair_coeff    1    2 thole   0.601
pair_coeff    1    3 thole   0.836
pair_coeff    1    4 thole   0.914
pair_coeff    1    5 thole   0.914
pair_coeff    1    6 thole   1.071
pair_coeff    1   10 thole   0.578
pair_coeff    1   11 thole   0.601
pair_coeff    1   12 thole   0.836
pair_coeff    1   13 thole   0.914
pair_coeff    1   14 thole   0.914
pair_coeff    1   15 thole   1.071
pair_coeff    2    2 thole   0.625
pair_coeff    2    3 thole   0.869
pair_coeff    2    4 thole   0.950
pair_coeff    2    5 thole   0.950
pair_coeff    2    6 thole   1.114
pair_coeff    2   10 thole   0.601
pair_coeff    2   11 thole   0.625
pair_coeff    2   12 thole   0.869
pair_coeff    2   13 thole   0.950
pair_coeff    2   14 thole   0.950
pair_coeff    2   15 thole   1.114
pair_coeff    3    3 thole   1.208
pair_coeff    3    4 thole   1.321
pair_coeff    3    5 thole   1.321
pair_coeff    3    6 thole   1.549
pair_coeff    3   10 thole   0.836
pair_coeff    3   11 thole   0.869
pair_coeff    3   12 thole   1.208
pair_coeff    3   13 thole   1.321
pair_coeff    3   14 thole   1.321
pair_coeff    3   15 thole   1.549
pair_coeff    4    4 thole   1.445
pair_coeff    4    5 thole   1.445
pair_coeff    4    6 thole   1.694
pair_coeff    4   10 thole   0.914
pair_coeff    4   11 thole   0.950
pair_coeff    4   12 thole   1.321
pair_coeff    4   13 thole   1.445
pair_coeff    4   14 thole   1.445
pair_coeff    4   15 thole   1.694
pair_coeff    5    5 thole   1.445
pair_coeff    5    6 thole   1.694
pair_coeff    5   10 thole   0.914
pair_coeff    5   11 thole   0.950
pair_coeff    5   12 thole   1.321
pair_coeff    5   13 thole   1.445
pair_coeff    5   14 thole   1.445
pair_coeff    5   15 thole   1.694
pair_coeff    6    6 thole   1.985
pair_coeff    6   10 thole   1.071
pair_coeff    6   11 thole   1.114
pair_coeff    6   12 thole   1.549
pair_coeff    6   13 thole   1.694
pair_coeff    6   14 thole   1.694
pair_coeff    6   15 thole   1.985
pair_coeff   10   10 thole   0.578
pair_coeff   10   11 thole   0.601
pair_coeff   10   12 thole   0.836
pair_coeff   10   13 thole   0.914
pair_coeff   10   14 thole   0.914
pair_coeff   10   15 thole   1.071
pair_coeff   11   11 thole   0.625
pair_coeff   11   12 thole   0.869
pair_coeff   11   13 thole   0.950
pair_coeff   11   14 thole   0.950
pair_coeff   11   15 thole   1.114
pair_coeff   12   12 thole   1.208
pair_coeff   12   13 thole   1.321
pair_coeff   12   14 thole   1.321
pair_coeff   12   15 thole   1.549
pair_coeff   13   13 thole   1.445
pair_coeff   13   14 thole   1.445
pair_coeff   13   15 thole   1.694
pair_coeff   14   14 thole   1.445
pair_coeff   14   15 thole   1.694
pair_coeff   15   15 thole   1.985
