pair_coeff    1    1    0.095005     3.580000  # B B
pair_coeff    1    2    0.076123     3.342095  # B FB
pair_coeff    1    3    0.127086     3.411012  # B NA
pair_coeff    1    4    0.081550     3.564968  # B CR
pair_coeff    1    5    0.081550     3.564968  # B CW
pair_coeff    1    6    0.079185     3.539774  # B C1
pair_coeff    1    7    0.053387     2.943399  # B HCR
pair_coeff    1    8    0.053387     2.943399  # B HCW
pair_coeff    1    9    0.053387     2.991655  # B H1
pair_coeff    2    2    0.060994     3.120000  # FB FB
pair_coeff    2    3    0.101828     3.184337  # FB NA
pair_coeff    2    4    0.065342     3.328062  # FB CR
pair_coeff    2    5    0.065342     3.328062  # FB CW
pair_coeff    2    6    0.063447     3.304542  # FB C1
pair_coeff    2    7    0.042776     2.747799  # FB HCR
pair_coeff    2    8    0.042776     2.747799  # FB HCW
pair_coeff    2    9    0.042776     2.792848  # FB H1
pair_coeff    3    3    0.170000     3.250000  # NA NA
pair_coeff    3    4    0.109087     3.396690  # NA CR
pair_coeff    3    5    0.109087     3.396690  # NA CW
pair_coeff    3    6    0.105924     3.372684  # NA C1
pair_coeff    3    7    0.071414     2.804461  # NA HCR
pair_coeff    3    8    0.071414     2.804461  # NA HCW
pair_coeff    3    9    0.071414     2.850439  # NA H1
pair_coeff    4    4    0.070000     3.550000  # CR CR
pair_coeff    4    5    0.070000     3.550000  # CR CW
pair_coeff    4    6    0.067970     3.524911  # CR C1
pair_coeff    4    7    0.045826     2.931041  # CR HCR
pair_coeff    4    8    0.045826     2.931041  # CR HCW
pair_coeff    4    9    0.045826     2.979094  # CR H1
pair_coeff    5    5    0.070000     3.550000  # CW CW
pair_coeff    5    6    0.067970     3.524911  # CW C1
pair_coeff    5    7    0.045826     2.931041  # CW HCR
pair_coeff    5    8    0.045826     2.931041  # CW HCW
pair_coeff    5    9    0.045826     2.979094  # CW H1
pair_coeff    6    6    0.065999     3.500000  # C1 C1
pair_coeff    6    7    0.044497     2.910326  # C1 HCR
pair_coeff    6    8    0.044497     2.910326  # C1 HCW
pair_coeff    6    9    0.044497     2.958040  # C1 H1
pair_coeff    7    7    0.030000     2.420000  # HCR HCR
pair_coeff    7    8    0.030000     2.420000  # HCR HCW
pair_coeff    7    9    0.030000     2.459675  # HCR H1
pair_coeff    8    8    0.030000     2.420000  # HCW HCW
pair_coeff    8    9    0.030000     2.459675  # HCW H1
pair_coeff    9    9    0.030000     2.500000  # H1 H1
