# interactions involving Drude particles
pair_coeff    *   5* lj/cut/coul/long 0.0 0.0 
# Thole dipole-dipole damping if more than 1 Drude per molecule
pair_coeff    3    3 thole   1.139   1.507
pair_coeff    3    5 thole   1.139   1.507
pair_coeff    5    5 thole   1.139   1.507
