pair_coeff    1    1 lj/cut/coul/long     0.000000     0.000000  # B B
pair_coeff    1    2 lj/cut/coul/long     0.000000     0.000000  # B FB
pair_coeff    1    3 lj/cut/coul/long     0.000000     0.000000  # B CA
pair_coeff    1    4 lj/cut/coul/long     0.000000     0.000000  # B HA
pair_coeff    2    2 lj/cut/coul/long     0.000000     0.000000  # FB FB
pair_coeff    2    3 lj/cut/coul/long     0.000000     0.000000  # FB CA
pair_coeff    2    4 lj/cut/coul/long     0.000000     0.000000  # FB HA
pair_coeff    3    3 lj/cut/coul/long     0.000000     0.000000  # CA CA
pair_coeff    3    4 lj/cut/coul/long     0.000000     0.000000  # CA HA
pair_coeff    4    4 lj/cut/coul/long     0.000000     0.000000  # HA HA
