# interactions involving Drude particles
pair_coeff    *  12* coul/long/cs
# Thole dipole-dipole damping if more than 1 Drude per molecule
pair_coeff    2    2 thole   1.139   1.507
pair_coeff    2   12 thole   1.139   1.507
pair_coeff    3    3 thole   0.578
pair_coeff    3    4 thole   0.601
pair_coeff    3    5 thole   0.836
pair_coeff    3    6 thole   0.914
pair_coeff    3    7 thole   0.914
pair_coeff    3    8 thole   1.071
pair_coeff    3   13 thole   0.578
pair_coeff    3   14 thole   0.601
pair_coeff    3   15 thole   0.836
pair_coeff    3   16 thole   0.914
pair_coeff    3   17 thole   0.914
pair_coeff    3   18 thole   1.071
pair_coeff    4    4 thole   0.625
pair_coeff    4    5 thole   0.869
pair_coeff    4    6 thole   0.950
pair_coeff    4    7 thole   0.950
pair_coeff    4    8 thole   1.114
pair_coeff    4   13 thole   0.601
pair_coeff    4   14 thole   0.625
pair_coeff    4   15 thole   0.869
pair_coeff    4   16 thole   0.950
pair_coeff    4   17 thole   0.950
pair_coeff    4   18 thole   1.114
pair_coeff    5    5 thole   1.208
pair_coeff    5    6 thole   1.321
pair_coeff    5    7 thole   1.321
pair_coeff    5    8 thole   1.549
pair_coeff    5   13 thole   0.836
pair_coeff    5   14 thole   0.869
pair_coeff    5   15 thole   1.208
pair_coeff    5   16 thole   1.321
pair_coeff    5   17 thole   1.321
pair_coeff    5   18 thole   1.549
pair_coeff    6    6 thole   1.445
pair_coeff    6    7 thole   1.445
pair_coeff    6    8 thole   1.694
pair_coeff    6   13 thole   0.914
pair_coeff    6   14 thole   0.950
pair_coeff    6   15 thole   1.321
pair_coeff    6   16 thole   1.445
pair_coeff    6   17 thole   1.445
pair_coeff    6   18 thole   1.694
pair_coeff    7    7 thole   1.445
pair_coeff    7    8 thole   1.694
pair_coeff    7   13 thole   0.914
pair_coeff    7   14 thole   0.950
pair_coeff    7   15 thole   1.321
pair_coeff    7   16 thole   1.445
pair_coeff    7   17 thole   1.445
pair_coeff    7   18 thole   1.694
pair_coeff    8    8 thole   1.985
pair_coeff    8   13 thole   1.071
pair_coeff    8   14 thole   1.114
pair_coeff    8   15 thole   1.549
pair_coeff    8   16 thole   1.694
pair_coeff    8   17 thole   1.694
pair_coeff    8   18 thole   1.985
pair_coeff   12   12 thole   1.139   1.507
pair_coeff   13   13 thole   0.578
pair_coeff   13   14 thole   0.601
pair_coeff   13   15 thole   0.836
pair_coeff   13   16 thole   0.914
pair_coeff   13   17 thole   0.914
pair_coeff   13   18 thole   1.071
pair_coeff   14   14 thole   0.625
pair_coeff   14   15 thole   0.869
pair_coeff   14   16 thole   0.950
pair_coeff   14   17 thole   0.950
pair_coeff   14   18 thole   1.114
pair_coeff   15   15 thole   1.208
pair_coeff   15   16 thole   1.321
pair_coeff   15   17 thole   1.321
pair_coeff   15   18 thole   1.549
pair_coeff   16   16 thole   1.445
pair_coeff   16   17 thole   1.445
pair_coeff   16   18 thole   1.694
pair_coeff   17   17 thole   1.445
pair_coeff   17   18 thole   1.694
pair_coeff   18   18 thole   1.985
