# created by fftool
# modified by Tom
units real
boundary p p p

# can combine various styles with the hybrid command
atom_style full
bond_style harmonic
angle_style hybrid harmonic cosine/squared
dihedral_style hybrid harmonic opls
improper_style umbrella
special_bonds lj/coul 0.0 0.0 0.5

# LJ cutoff of 15 Angstroms
pair_style hybrid/overlay lj/cut/coul/long 15.0 15.0 coul/long/cs 15.0 thole 2.600 15.0
kspace_style pppm 1.0e-5

# read parameters
# bonds, angles, dihedrals
read_data data.after-prod.lmp extra/special/per/atom 9
# LJ and drudes
include pair-sc.lmp
include pair-drude.lmp

#######################################

# some important fixes and groups
# convenient atom groups (for shake, thermostats...)
group gATOMS type 2 3 4 5 6 7 8 9 10 11
group gCORES type 3 4 5 6 7 8
group gDRUDES type 12 13 14 15 16 17
group gGRAPHENE type 2
group gFROZEN type 1
group gIL type 3 4 5 6 7 8 9 10 11 12 13 14 15 16 17
group gIL_DRUDES type 12 13 14 15 16 17
group gIL_ATOMS type 3 4 5 6 7 8 9 10 11
# identify each atom type: [C]ore, [D]rude, [N]on-polarizable
fix fDRUDE all drude N N C C C C C C N N N D D D D D D
# freeze the two bottom graphene layers 
fix fFREEZE gFROZEN setforce 0.0 0.0 0.0 

# debug
# info coeffs

# neighbor list
neighbor 2.0 bin
neigh_modify delay 0 every 1 check yes 
neigh_modify one 10000 # increase max number of neighbors per atom

# reset timestep
reset_timestep 0

#######################################
# MD settings

timestep 1.0
variable vTK equal 425.0
variable vTDRUDE equal 1.0
variable vPBAR equal 1.0

# ring atoms at imidazole dont move
fix fSHAKE gATOMS shake 0.0001 20 0 b 7 8 9
# repulsive wall in z direction to prevent IL from evaporating
fix fWALL gIL wall/harmonic zhi 120.0 20.0 3.52 10 units box pbc yes
# no linear momentum
fix fMOM_G gGRAPHENE momentum 100 linear 1 1 1
fix fMOM_IL gIL momentum 100 linear 1 1 1

# velocities
velocity gATOMS create ${vTK} 11101
velocity gDRUDES create ${vTDRUDE} 22201
# store velocity information of ghost atoms, needed for tgnvt/drude
comm_modify vel yes

# output
thermo_style custom step temp press vol density pe ke etotal
thermo 1000

# drude temperature data
compute cTGRAPHENE gGRAPHENE temp
compute cTIL gIL temp/drude
thermo_style custom step temp press vol density pe ke etotal c_cTGRAPHENE c_cTIL[1] c_cTIL[2]

#######################################
# Equilibration

# TGNH for IL
fix fTHERMO_IL gIL tgnvt/drude temp ${vTK} ${vTK} $(100.0*dt) ${vTDRUDE} $(20.0*dt)
# standard NVT for graphene
fix fTHERMO_GRAPHENE gGRAPHENE nvt temp ${vTK} ${vTK} $(100.0*dt)

# dumping trajectory for equilibration
dump dEQUI all custom 1000 equi.lammpstrj id type element xu yu zu
dump_modify dEQUI element C C B F N C C C H H H D D D D D D sort id

# run 2 ns
run 2000000
write_restart after-equi.lmp

undump dEQUI

#######################################
# Production

# trajectory
dump dTRAJ all custom 1000 traj.lammpstrj id type element xu yu zu
dump_modify dTRAJ element C C B F N C C C H H H D D D D D D sort id

# thermostating stays the same

# run 5 ns
run 5000000
write_restart after-prod.lmp

#######################################
# done

undump dTRAJ
unfix fTHERMO_GRAPHENE
unfix fTHERMO_IL
unfix fMOM_IL
unfix fMOM_G
unfix fWALL
unfix fFREEZE
unfix fSHAKE
unfix fDRUDE

